
Starting CP-SAT solver v9.15.6755
Parameters: random_seed: 2026073058 max_time_in_seconds: 2500 log_search_progress: true cp_model_presolve: true linearization_level: 2 num_search_workers: 4 cp_model_probing_level: 2 symmetry_level: 2

Initial satisfaction model '': (model_fingerprint: 0xfdfd02a030438c57)
#Variables: 724 (598 primary variables)
  - 724 Booleans in [0,1]
#kBoolAnd: 110 (#enforced: 110) (#literals: 330)
#kBoolOr: 110 (#enforced: 110) (#literals: 220)
#kExactlyOne: 87 (#literals: 261)
#kLinear1: 42 (#enforced: 6)
#kLinear2: 336 (#enforced: 336) (#complex_domain: 110)
#kLinear3: 1'600 (#enforced: 6)
#kLinearN: 1'132 (#enforced: 243) (#terms: 9'111)

Starting presolve at 0.00s
  7.08e-04s  0.00e+00d  [DetectDominanceRelations] 
  8.89e-03s  0.00e+00d  [PresolveToFixPoint] #num_loops=3 #num_dual_strengthening=1 
  3.88e-05s  0.00e+00d  [ExtractEncodingFromLinear] #potential_supersets=84 
  2.94e-04s  0.00e+00d  [DetectDuplicateColumns] 
  1.13e-04s  0.00e+00d  [DetectDuplicateConstraints] #duplicates=14 
[Symmetry] Graph for symmetry has 4'814 nodes and 15'296 arcs.
[Symmetry] Symmetry computation done. time: 0.00130799 dtime: 0.00179918
[SAT presolve] num removable Booleans: 220 / 606
[SAT presolve] num trivial clauses: 0
[SAT presolve] [0s] clauses:2'669 literals:7'294 vars:500 one_side_vars:60 simple_definition:1 singleton_clauses:0
[SAT presolve] [0.000230112s] clauses:2'668 literals:7'287 vars:500 one_side_vars:60 simple_definition:1 singleton_clauses:0
[SAT presolve] [0.000560532s] clauses:2'436 literals:6'950 vars:388 one_side_vars:60 simple_definition:2 singleton_clauses:0
  1.49e-04s  0.00e+00d  [DetectDuplicateConstraintsWithDifferentEnforcements] #without_enforcements=4 
  5.86e-03s  3.09e-03d  [Probe] #probed=1'258 #fixed_bools=4 #equiv=3 #new_binary_clauses=953 
  6.72e-04s  6.47e-04d  [MaxClique] Merged 641 constraints with 1'416 literals into 563 constraints with 1'295 literals
  9.59e-04s  0.00e+00d  [DetectDominanceRelations] 
  3.53e-03s  0.00e+00d  [PresolveToFixPoint] #num_loops=2 #num_dual_strengthening=2 
  1.23e-03s  0.00e+00d  [ProcessAtMostOneAndLinear] 
  1.14e-04s  0.00e+00d  [DetectDuplicateConstraints] 
  8.83e-05s  0.00e+00d  [DetectDuplicateConstraintsWithDifferentEnforcements] 
  1.50e-03s  6.98e-05d  [DetectDominatedLinearConstraints] #relevant_constraints=829 #num_inclusions=373 #num_redundant=6 
  2.12e-04s  0.00e+00d  [DetectDifferentVariables] 
  8.86e-04s  9.10e-05d  [ProcessSetPPC] #relevant_constraints=3'198 #num_inclusions=289 
  3.28e-04s  3.45e-05d  [TransformClausesToExactlyOne] #num_amos=636 #num_clauses=1'764 #num_transformed=1 #num_checked=1'764 
  5.26e-05s  0.00e+00d  [DetectEncodedComplexDomains] 
  3.15e-05s  2.90e-07d  [FindAlmostIdenticalLinearConstraints] #num_tested_pairs=3 
  1.02e-03s  1.41e-03d  [FindBigAtMostOneAndLinearOverlap] 
  1.54e-03s  1.21e-03d  [FindBigVerticalLinearOverlap] #blocks=3 #saved_nz=105 
  3.53e-04s  6.06e-04d  [FindBigHorizontalLinearOverlap] #linears=456 
  3.66e-04s  2.75e-05d  [MergeClauses] #num_collisions=2 #num_merges=2 #num_saved_literals=4 
  9.55e-04s  0.00e+00d  [DetectDominanceRelations] 
  3.22e-03s  0.00e+00d  [PresolveToFixPoint] #num_loops=2 #num_dual_strengthening=1 
  9.22e-04s  0.00e+00d  [DetectDominanceRelations] 
  3.10e-03s  0.00e+00d  [PresolveToFixPoint] #num_loops=1 #num_dual_strengthening=1 
  1.36e-04s  0.00e+00d  [DetectDuplicateColumns] 
  9.09e-05s  0.00e+00d  [DetectDuplicateConstraints] 
[Symmetry] Graph for symmetry has 4'514 nodes and 14'097 arcs.
[Symmetry] Symmetry computation done. time: 0.00114967 dtime: 0.0015563
[SAT presolve] num removable Booleans: 101 / 486
[SAT presolve] num trivial clauses: 0
[SAT presolve] [0s] clauses:2'343 literals:6'657 vars:461 one_side_vars:158 simple_definition:14 singleton_clauses:0
[SAT presolve] [0.000240487s] clauses:2'343 literals:6'518 vars:461 one_side_vars:161 simple_definition:78 singleton_clauses:0
[SAT presolve] [0.000405011s] clauses:2'135 literals:6'049 vars:451 one_side_vars:202 simple_definition:53 singleton_clauses:0
  1.55e-04s  0.00e+00d  [DetectDuplicateConstraintsWithDifferentEnforcements] #without_enforcements=3 
  4.93e-03s  1.92e-03d  [Probe] #probed=1'256 #new_binary_clauses=903 
  4.62e-04s  4.08e-04d  [MaxClique] Merged 516 constraints with 1'147 literals into 501 constraints with 1'138 literals
  9.16e-04s  0.00e+00d  [DetectDominanceRelations] 
  3.10e-03s  0.00e+00d  [PresolveToFixPoint] #num_loops=1 #num_dual_strengthening=1 
  1.14e-03s  0.00e+00d  [ProcessAtMostOneAndLinear] 
  1.05e-04s  0.00e+00d  [DetectDuplicateConstraints] 
  8.89e-05s  0.00e+00d  [DetectDuplicateConstraintsWithDifferentEnforcements] 
  8.44e-04s  5.73e-05d  [DetectDominatedLinearConstraints] #relevant_constraints=817 #num_inclusions=309 #num_redundant=1 
  1.27e-04s  0.00e+00d  [DetectDifferentVariables] 
  7.88e-04s  7.25e-05d  [ProcessSetPPC] #relevant_constraints=3'038 #num_inclusions=90 
  2.98e-04s  3.16e-05d  [TransformClausesToExactlyOne] #num_amos=504 #num_clauses=1'666 #num_checked=1'666 
  5.79e-05s  0.00e+00d  [DetectEncodedComplexDomains] 
  3.71e-05s  0.00e+00d  [FindAlmostIdenticalLinearConstraints] 
  9.22e-04s  1.19e-03d  [FindBigAtMostOneAndLinearOverlap] 
  1.45e-03s  1.03e-03d  [FindBigVerticalLinearOverlap] #blocks=3 #saved_nz=297 
  3.32e-04s  5.33e-04d  [FindBigHorizontalLinearOverlap] #linears=455 
  3.49e-04s  2.55e-05d  [MergeClauses] #num_collisions=68 #num_merges=68 #num_saved_literals=167 
  9.24e-04s  0.00e+00d  [DetectDominanceRelations] 
  3.14e-03s  0.00e+00d  [PresolveToFixPoint] #num_loops=2 #num_dual_strengthening=1 
  8.90e-04s  0.00e+00d  [DetectDominanceRelations] 
  3.00e-03s  0.00e+00d  [PresolveToFixPoint] #num_loops=1 #num_dual_strengthening=1 
  2.09e-04s  0.00e+00d  [DetectDuplicateColumns] 
  1.03e-04s  0.00e+00d  [DetectDuplicateConstraints] 
[Symmetry] Graph for symmetry has 4'245 nodes and 12'835 arcs.
[Symmetry] Symmetry computation done. time: 0.00105476 dtime: 0.00130084
[SAT presolve] num removable Booleans: 91 / 476
[SAT presolve] num trivial clauses: 0
[SAT presolve] [0s] clauses:2'110 literals:5'987 vars:451 one_side_vars:202 simple_definition:53 singleton_clauses:0
[SAT presolve] [0.000211715s] clauses:2'110 literals:5'987 vars:451 one_side_vars:202 simple_definition:53 singleton_clauses:0
[SAT presolve] [0.000279936s] clauses:2'110 literals:5'987 vars:451 one_side_vars:202 simple_definition:53 singleton_clauses:0
  1.54e-04s  0.00e+00d  [DetectDuplicateConstraintsWithDifferentEnforcements] 
  5.32e-03s  1.92e-03d  [Probe] #probed=1'256 #new_binary_clauses=902 
  4.67e-04s  4.01e-04d  [MaxClique] Merged 499 constraints with 1'119 literals into 498 constraints with 1'118 literals
  9.22e-04s  0.00e+00d  [DetectDominanceRelations] 
  3.14e-03s  0.00e+00d  [PresolveToFixPoint] #num_loops=1 #num_dual_strengthening=1 
  1.11e-03s  0.00e+00d  [ProcessAtMostOneAndLinear] 
  1.56e-04s  0.00e+00d  [DetectDuplicateConstraints] 
  9.78e-05s  0.00e+00d  [DetectDuplicateConstraintsWithDifferentEnforcements] 
  6.32e-04s  4.55e-05d  [DetectDominatedLinearConstraints] #relevant_constraints=816 #num_inclusions=257 #num_redundant=1 
  1.36e-04s  0.00e+00d  [DetectDifferentVariables] 
  7.82e-04s  6.71e-05d  [ProcessSetPPC] #relevant_constraints=3'036 #num_inclusions=61 
  3.33e-04s  3.16e-05d  [TransformClausesToExactlyOne] #num_amos=498 #num_clauses=1'668 #num_checked=1'668 
  5.26e-05s  0.00e+00d  [DetectEncodedComplexDomains] 
  4.40e-05s  1.90e-07d  [FindAlmostIdenticalLinearConstraints] #num_tested_pairs=2 
  8.10e-04s  9.13e-04d  [FindBigAtMostOneAndLinearOverlap] 
  1.13e-03s  7.68e-04d  [FindBigVerticalLinearOverlap] 
  1.90e-04s  2.65e-04d  [FindBigHorizontalLinearOverlap] #linears=455 
  3.64e-04s  2.55e-05d  [MergeClauses] #num_collisions=69 #num_merges=69 #num_saved_literals=169 
  9.31e-04s  0.00e+00d  [DetectDominanceRelations] 
  3.10e-03s  0.00e+00d  [PresolveToFixPoint] #num_loops=1 #num_dual_strengthening=1 
  2.21e-05s  0.00e+00d  [MergeNoOverlap] 
  2.10e-05s  0.00e+00d  [MergeNoOverlap2D] 

Presolve summary:
  - 32 affine relations were detected.
  - rule 'TODO dual: only one blocking constraint?' was applied 937 times.
  - rule 'TODO linear inclusion: superset is equality' was applied 51 times.
  - rule 'affine: new relation' was applied 32 times.
  - rule 'at_most_one: removed literals' was applied 2 times.
  - rule 'at_most_one: satisfied' was applied 3 times.
  - rule 'at_most_one: size one' was applied 2 times.
  - rule 'at_most_one: transformed into max clique' was applied 3 times.
  - rule 'bool_or: always true' was applied 20 times.
  - rule 'bool_or: implications' was applied 96 times.
  - rule 'bool_or: only one literal' was applied 12 times.
  - rule 'bool_or: removed enforcement literal' was applied 557 times.
  - rule 'clauses: transformed into exactly one' was applied 1 time.
  - rule 'deductions: 681 stored' was applied 1 time.
  - rule 'dual: fix variable' was applied 1 time.
  - rule 'duplicate: merged rhs of linear constraint' was applied 13 times.
  - rule 'duplicate: removed constraint' was applied 14 times.
  - rule 'duplicate: removed enforced constraint' was applied 7 times.
  - rule 'enforcement: false literal' was applied 43 times.
  - rule 'enforcement: true literal' was applied 12 times.
  - rule 'exactly_one: removed literals' was applied 27 times.
  - rule 'exactly_one: satisfied' was applied 13 times.
  - rule 'exactly_one: singleton' was applied 2 times.
  - rule 'exactly_one: size two' was applied 25 times.
  - rule 'incompatible linear: add implication' was applied 129 times.
  - rule 'linear + amo: empty after processing' was applied 5 times.
  - rule 'linear + amo: extracted enforcement literal' was applied 46 times.
  - rule 'linear + amo: trivial linear constraint' was applied 1 time.
  - rule 'linear inclusion: redundant containing constraint' was applied 2 times.
  - rule 'linear inclusion: redundant included constraint' was applied 3 times.
  - rule 'linear inclusion: sparsify superset' was applied 3 times.
  - rule 'linear matrix: common vertical rectangle' was applied 6 times.
  - rule 'linear1: always true' was applied 5 times.
  - rule 'linear1: x in domain' was applied 36 times.
  - rule 'linear2: convert ax + by != cte to clauses' was applied 264 times.
  - rule 'linear2: convert implied ax + by == cte to clauses' was applied 114 times.
  - rule 'linear2: implied ax + by = cte has only one solution' was applied 9 times.
  - rule 'linear: always true' was applied 409 times.
  - rule 'linear: coefficient strengthening by increasing it' was applied 2 times.
  - rule 'linear: empty' was applied 9 times.
  - rule 'linear: enforcement literal in expression' was applied 8 times.
  - rule 'linear: extracted at most one (max)' was applied 1 time.
  - rule 'linear: fixed or dup variables' was applied 885 times.
  - rule 'linear: negative clause' was applied 1'290 times.
  - rule 'linear: negative reified and' was applied 68 times.
  - rule 'linear: never in domain' was applied 5 times.
  - rule 'linear: positive at most one' was applied 36 times.
  - rule 'linear: positive equal one' was applied 1 time.
  - rule 'linear: reduced variable domains' was applied 7 times.
  - rule 'linear: remapped using affine relations' was applied 33 times.
  - rule 'presolve: 96 unused variables removed.' was applied 1 time.
  - rule 'presolve: iteration' was applied 3 times.
  - rule 'probing: bool_or reduced to implication' was applied 58 times.
  - rule 'probing: simplified clauses' was applied 13 times.
  - rule 'setppc: bool_or in at_most_one' was applied 9 times.
  - rule 'setppc: exactly_one included in linear' was applied 1 time.
  - rule 'setppc: reduced linear coefficients' was applied 1 time.
  - rule 'setppc: removed dominated constraints' was applied 88 times.
  - rule 'variables: both boolean and its negation fix the same variable' was applied 4 times.
  - rule 'variables: detect half reified value encoding' was applied 8 times.

Presolved satisfaction model '': (model_fingerprint: 0xd26017b9e12025d6)
#Variables: 478 (409 primary variables)
  - 476 Booleans in [0,1]
  - 1 in [0,2]
  - 1 in [0,7]
#kAtMostOne: 58 (#literals: 238)
#kBoolAnd: 254 (#enforced: 254) (#literals: 694)
#kBoolAndClauses: 69 (#enforced: 69 #multi: 69) (#literals: 307)
#kBoolOr: 1'530 (#literals: 4'627)
#kExactlyOne: 54 (#literals: 209)
#kLinearN: 816 (#enforced: 118) (#terms: 5'449)
[Symmetry] Graph for symmetry has 3'991 nodes and 12'814 arcs.
[Symmetry] Symmetry computation done. time: 0.000897613 dtime: 0.00128212

Preloading model.
#Model   0.10s var:478/478 constraints:2781/2781

Starting search at 0.10s with 4 workers.
3 full problem subsolvers: [default_lp, max_lp, no_lp]
1 first solution subsolver: [fj]
2 interleaved subsolvers: [feasibility_pump, rins/rens]
2 helper subsolvers: [neighborhood_helper, synchronization_agent]

#Model  17.23s var:477/478 constraints:2779/2781
#Model  35.84s var:476/478 constraints:2779/2781
#Model  65.08s var:475/478 constraints:2763/2781
#Model  73.49s var:474/478 constraints:2761/2781
#Model  75.22s var:473/478 constraints:2759/2781
#Model  76.04s var:472/478 constraints:2759/2781
#Model 110.69s var:471/478 constraints:2744/2781
#Model 122.26s var:470/478 constraints:2744/2781
#Model 176.49s var:469/478 constraints:2726/2781
#Model 280.95s var:455/478 constraints:2709/2781
#Model 290.48s var:453/478 constraints:2683/2781
#Model 300.90s var:446/478 constraints:2615/2781
#Model 301.73s var:442/478 constraints:2579/2781
#Model 379.43s var:441/478 constraints:2555/2781
#Model 491.67s var:440/478 constraints:2540/2781
#Model 503.20s var:433/478 constraints:2477/2781
#Model 528.80s var:432/478 constraints:2475/2781
#Model 565.34s var:431/478 constraints:2455/2781
#Model 825.05s var:430/478 constraints:2437/2781
#Model 829.62s var:427/478 constraints:2413/2781
#Model 845.77s var:426/478 constraints:2398/2781
#Model 846.37s var:425/478 constraints:2386/2781
#Model 846.41s var:424/478 constraints:2372/2781
#Model 847.69s var:412/478 constraints:2242/2781
#Model 849.37s var:411/478 constraints:2226/2781
#Done  849.39s no_lp

Task timing                   n [     min,      max]      avg      dev     time         n [     min,      max]      avg      dev    dtime
        'default_lp':         1 [  14.15m,   14.15m]   14.15m   0.00ns   14.15m         2 [  2.20ms,   13.89m]    6.95m    6.95m   13.89m
  'feasibility_pump':      4212 [881.11us, 172.61ms]   1.51ms   2.66ms    6.35s      4211 [270.16us, 155.47ms] 307.77us   2.39ms    1.30s
                'fj':      3091 [ 19.19ms, 175.78ms] 136.26ms  10.40ms    7.02m      3091 [  8.37ms, 100.11ms]  99.99ms   1.65ms    5.15m
            'max_lp':         1 [  14.15m,   14.15m]   14.15m   0.00ns   14.15m         2 [ 93.83ms,   16.46m]    8.23m    8.23m   16.46m
             'no_lp':         1 [  14.15m,   14.15m]   14.15m   0.00ns   14.15m         2 [  1.82ms,   25.82m]   12.91m   12.91m   25.82m
         'rins/rens':      4043 [ 20.44ms, 171.30ms] 104.17ms  39.84ms    7.02m      4043 [278.76us, 100.30ms]  67.10ms  38.11ms    4.52m

Search stats     Bools  Conflicts    Branches  Restarts  BacktrackToRoot  Backtrack   BoolPropag  IntegerPropag
  'default_lp':    476     96'078   5'117'031       589          835'637  1'134'323   50'944'010     49'265'190
      'max_lp':    476    102'165   5'274'439       468          816'653  1'107'510   53'766'390     52'267'650
       'no_lp':    476  7'473'383  11'078'804    24'790          313'027  7'757'193  671'953'046    125'195'704

SAT formula      Fixed  Equiv  Total  VarLeft  BinaryClauses  PermanentClauses  TemporaryClauses
  'default_lp':     54      6    476      416          1'748            19'678             2'852
      'max_lp':     78      9    476      389          2'546            15'363             1'390
       'no_lp':    297      9    476      170          2'568            36'470             3'393

SAT stats        ClassicMinim   LitRemoved  LitRemovedBinary   LitLearned  LitForgotten   Subsumed
  'default_lp':        82'056      892'227           398'918    2'138'688       950'000     40'176
      'max_lp':        85'058      967'442           394'748    2'152'625     1'157'605     31'357
       'no_lp':     6'696'345  111'498'528        34'318'246  167'095'390   129'521'319  2'072'551

Vivification     Clauses  Decisions  LitTrue  Subsumed  LitRemoved  DecisionReused  Conflicts
  'default_lp':  915'972  4'880'061        6    13'777     139'849         277'327      1'525
      'max_lp':  872'100  5'017'406        7    15'815     164'716         272'557      1'753
       'no_lp':  260'043  2'176'314        0    17'522     244'486          87'206      1'814

Clause deletion    at_true  l_and_not(l)  to_binary  sub_conflict  sub_extra  sub_decisions  sub_eager  sub_vivify  sub_probing  sub_inpro  blocked  eliminated  forgotten    promoted  conflicts
    'default_lp':   13'327            72         50        39'579        278          1'475        597      13'777        5'053     17'809        0           0     31'034     178'481     96'078
        'max_lp':   15'097           103        129        30'948        328            952        409      15'815        6'109     20'418        0           0     45'445     207'655    102'165
         'no_lp':   61'579           192        147     2'033'700     17'570         95'400     38'851      17'522       15'805    114'582        0           0  5'044'275  17'098'306  7'473'383

Lp stats         Component  Iterations  AddedCuts  OPTIMAL  DUAL_F.  DUAL_U.
  'default_lp':          1   9'826'063     39'746  119'172        0   63'911
      'max_lp':          1   4'408'904     49'954   21'617   83'974   14'052

Lp dimension        Final dimension of first component
  'default_lp':    283 rows, 345 columns, 2369 entries
      'max_lp':  1098 rows, 478 columns, 14226 entries

Lp debug         CutPropag  CutEqPropag  Adjust  Overflow        Bad  BadScaling
  'default_lp':          0            3  63'902         0    987'932           0
      'max_lp':          0            6  14'050         0  1'290'439           0

Lp pool          Constraints  Updates  Simplif  Merged  Shortened  Split  Strengthened      Cuts/Call
  'default_lp':       10'536    8'330        0       0        149      0             0  39'746/45'389
      'max_lp':       13'064   22'910        0       0        294      0         1'131  49'954/67'142

Lp Cut            default_lp  max_lp
          CG_FF:         519      69
           CG_K:         266       3
          CG_KL:         199       2
           CG_R:         556      32
          CG_RB:          15       -
         Clique:           -     108
             IB:          11       2
       MIR_1_FF:         391     632
        MIR_1_K:         112       9
       MIR_1_KL:         240      18
        MIR_1_R:         342     334
       MIR_1_RB:           8       -
      MIR_1_RLT:           -   4'857
       MIR_2_FF:         365     513
        MIR_2_K:          86     126
       MIR_2_KL:         152      48
        MIR_2_R:         338     532
       MIR_2_RB:          15       -
       MIR_3_FF:         160     117
        MIR_3_K:          26      14
       MIR_3_KL:          48      10
        MIR_3_R:         122     154
       MIR_3_RB:           2       -
      MIR_3_RBP:           -       1
       MIR_4_FF:          99      32
        MIR_4_K:          17      14
       MIR_4_KL:          30       3
        MIR_4_R:         114     154
       MIR_4_RB:           2       -
       MIR_5_FF:          24      12
        MIR_5_K:           5       2
       MIR_5_KL:           3       2
        MIR_5_R:          55     140
       MIR_6_FF:           7       3
        MIR_6_K:           -       1
       MIR_6_KL:           1       1
        MIR_6_R:          41     120
       MIR_6_RB:           2       -
   ZERO_HALF_FF:         240     458
    ZERO_HALF_K:          29       4
   ZERO_HALF_KL:          51       1
    ZERO_HALF_R:      35'036  41'413
   ZERO_HALF_RB:           -       1
  ZERO_HALF_RBP:          17      12

LNS stats       Improv/Calls  Closed  Difficulty  TimeLimit
  'rins/rens':     4043/4043     50%    8.08e-01       0.10

LS stats                                    Batches  Restarts/Perturbs    LinMoves   GenMoves  CompoundMoves  Bactracks  WeightUpdates  ScoreComputed
                             'fj_restart':      274                 38   7'602'767          0              0          0      7'596'673      1'438'762
                    'fj_restart_compound':      170                 46           0  1'948'760        121'146    913'694          4'385     30'942'418
                'fj_restart_compound_obj':       97                 46           0  1'082'549         92'056    495'133          2'245     17'624'086
            'fj_restart_compound_perturb':      235                 56           0  2'687'794        146'473  1'270'538          6'718     42'492'378
        'fj_restart_compound_perturb_obj':      190                 47           0  2'220'229        122'062  1'048'950          5'201     34'761'241
                       'fj_restart_decay':      145                 55   4'774'014          0              0          0        212'437      1'179'800
              'fj_restart_decay_compound':      185                 49           0  2'357'899        381'241    988'156          2'619     34'127'803
          'fj_restart_decay_compound_obj':      168                 68           0  2'056'381        339'950    858'031          2'440     30'823'694
      'fj_restart_decay_compound_perturb':      171                 58           0  2'094'361        343'467    875'332          2'433     31'375'917
  'fj_restart_decay_compound_perturb_obj':      197                 53           0  2'512'875        404'858  1'053'872          2'795     36'366'177
                   'fj_restart_decay_obj':       98                 43   3'246'898          0              0          0        142'951        795'213
               'fj_restart_decay_perturb':      126                 41   4'130'985          0              0          0        183'039      1'024'993
           'fj_restart_decay_perturb_obj':      410                 58  13'524'715          0              0          0        601'171      3'366'190
                         'fj_restart_obj':      264                 46   6'844'770          0              0          0      7'604'384        941'547
                     'fj_restart_perturb':      127                 46   3'478'683          0              0          0      3'408'516        668'418
                 'fj_restart_perturb_obj':      234                 36   6'197'108          0              0          0      6'579'229        901'893

Solution repositories    Added  Queried  Synchro
    'alternative_path':      0        0        0
      'best_solutions':      0        0        0
   'fj solution hints':    778        0      778
        'lp solutions':  1'057    4'043    1'047
                'pump':      0        0

Improving bounds shared    Num  Sym
            'default_lp':   30    0
                'max_lp':   17    0
                 'no_lp':   31    0

Clauses shared    #Exported  #Imported  #BinaryRead  #BinaryTotal
   'default_lp':      4'439     50'208          500         1'056
       'max_lp':      4'698     50'567        1'056         1'056
        'no_lp':     49'751      9'134        1'055         1'056

LRAT_status: NA
CpSolverResponse summary:
status: INFEASIBLE
objective: NA
best_bound: NA
integers: 345
booleans: 476
conflicts: 7473383
branches: 11078804
propagations: 671953046
integer_propagations: 125195704
restarts: 24790
lp_iterations: 0
walltime: 849.411
usertime: 849.411
deterministic_time: 3951.96
gap_integral: 0

{
  "board_size": 22,
  "parity_proved": 0,
  "target": 34,
  "child_id": 958,
  "child_count": 2640,
  "partition": "unknown_pair_x_diag_plus_twos_x_diag_minus_twos",
  "build_seconds": 0.08498477935791016,
  "workers": 4,
  "requested_seed": 2026073058,
  "effective_seed": 2026073058,
  "main_diagonal_pair": [
    2,
    13
  ],
  "pair_index": 50,
  "diag_plus_twos": 17,
  "diag_minus_twos": 16,
  "pair_excess": 22,
  "residual_certificate_slack": 90,
  "analytic_minimum_line_defect": 0,
  "analytic_defect_details": {
    "row_costs": {
      "12": 6,
      "13": 3,
      "14": 0,
      "15": 0,
      "16": 0,
      "17": 0
    },
    "column_costs": {
      "12": 6,
      "13": 3,
      "14": 0,
      "15": 0,
      "16": 0,
      "17": 0
    },
    "plus_cost": 0,
    "minus_cost": 0,
    "row_column_minimum": 0
  },
  "maximal_line_constraints": 2455,
  "analytic_infeasible": false,
  "allowed_points": 242,
  "status": "INFEASIBLE",
  "proof_method": "cp_sat_all_lines_with_certificate_profile_cuts",
  "elapsed_seconds": 849.4111726284027,
  "branches": 11078804,
  "conflicts": 7473383
}
